c A SAT instance generated from a 3-CNF formula that had 40 clauses and 20 variables
p cnf 20 40
-7 -3 -20 0
-12 -11 6 0
-1 -2 -5 0
-16 -4 -1 0
-9 5 18 0
-5 18 -17 0
-9 20 -1 0
17 -1 -3 0
-16 2 -10 0
-10 -12 17 0
-7 6 15 0
3 -16 14 0
-11 6 -14 0
2 5 -17 0
-18 -9 -8 0
-18 -13 11 0
-20 10 -17 0
9 17 7 0
5 -20 3 0
-7 -13 4 0
-7 -8 4 0
5 12 11 0
18 -2 -6 0
1 14 16 0
3 10 12 0
20 14 -1 0
13 -1 20 0
2 7 9 0
13 16 -18 0
19 -3 5 0
9 -19 3 0
-9 -7 -4 0
3 19 5 0
8 -19 14 0
15 -11 1 0
15 -13 7 0
-9 -19 16 0
20 -11 -3 0
7 10 -13 0
-3 8 20 0
%
0

75 21 85 55 88 18 88 55 100 17 79 80 76 23 24 28 31 36 78 91
